0000000000000000
0001111100000000
0001111110000000
0000011110000000
0000001110000000
0000000111000000
0000000111000000
0000000111000000
0000000111000000
0000000111000000
0000111111000000
0001111111000000
0001110111000000
0011100011000000
0111100011100000
0111000011100000
